0 2899
1 2873
2 2818
3 2683
4 2550
5 2550
6 2550
7 2488
8 2488
9 2422
10 2422
11 2082
12 2082
13 2082
14 2082
15 2061
16 2028
17 2028
18 2028
19 2028
20 1957
21 1891
22 1891
23 1891
24 1877
25 1877
26 1858
27 1807
28 1807
29 1783
30 1737
31 1619
32 1619
33 1619
34 1619
35 1619
36 1619
37 1619
38 1619
39 1619
40 1619
41 1619
42 1611
43 1611
44 1611
45 1611
46 1611
47 1611
48 1594
49 1594
50 1594
51 1594
52 1594
53 1594
54 1594
55 1594
56 1594
57 1594
58 1589
59 1589
60 1589
61 1589
62 1589
63 1589
64 1549
65 1541
66 1463
67 1463
68 1463
69 1418
70 1418
71 1418
72 1418
73 1418
74 1418
75 1418
76 1418
77 1418
78 1418
79 1418
80 1418
81 1418
82 1418
83 1418
84 1418
85 1418
86 1418
87 1418
88 1418
89 1418
90 1418
91 1418
92 1418
93 1407
94 1407
95 1407
96 1407
97 1407
98 1407
99 1407
100 1379
101 1375
102 1375
103 1375
104 1363
105 1363
106 1363
107 1363
108 1363
109 1363
110 1363
111 1363
112 1363
113 1363
114 1363
115 1363
116 1363
117 1363
118 1363
119 1363
120 1354
121 1354
122 1296
123 1296
124 1296
125 1296
126 1296
127 1296
128 1296
129 1296
130 1296
131 1296
132 1296
133 1282
134 1282
135 1282
136 1282
137 1282
138 1282
139 1282
140 1282
141 1282
142 1282
143 1282
144 1282
145 1282
146 1282
147 1282
148 1282
149 1282
150 1282
151 1220
152 1220
153 1220
154 1220
155 1220
156 1220
157 1220
158 1220
159 1220
160 1220
161 1220
162 1220
163 1220
164 1220
165 1220
166 1220
167 1220
168 1220
169 1220
170 1220
171 1220
172 1220
173 1220
174 1220
175 1220
176 1220
177 1220
178 1220
179 1220
180 1220
181 1216
182 1216
183 1216
184 1216
185 1208
186 1208
187 1208
188 1208
189 1208
190 1208
191 1208
192 1208
193 1208
194 1208
195 1208
196 1202
197 1202
198 1202
199 1202
200 1202
201 1202
202 1202
203 1202
204 1198
205 1198
206 1198
207 1198
208 1198
209 1198
210 1198
211 1198
212 1198
213 1198
214 1198
215 1192
216 1192
217 1192
218 1192
219 1192
220 1192
221 1192
222 1192
223 1190
224 1183
225 1183
226 1183
227 1183
228 1183
229 1183
230 1183
231 1183
232 1182
233 1182
234 1173
235 1173
236 1173
237 1173
238 1173
239 1173
240 1173
241 1173
242 1173
243 1173
244 1173
245 1173
246 1173
247 1173
248 1173
249 1173
250 1170
251 1170
252 1170
253 1170
254 1170
255 1168
256 1168
257 1168
258 1168
259 1168
260 1168
261 1168
262 1152
263 1152
264 1152
265 1152
266 1152
267 1152
268 1152
269 1152
270 1152
271 1152
272 1152
273 1152
274 1152
275 1152
276 1152
277 1152
278 1152
279 1152
280 1152
281 1152
282 1152
283 1152
284 1147
285 1147
286 1147
287 1147
288 1147
289 1147
290 1147
291 1147
292 1147
293 1147
294 1147
295 1147
296 1147
297 1147
298 1147
299 1147
300 1130
301 1130
302 1130
303 1130
304 1130
305 1130
306 1130
307 1130
308 1130
309 1130
310 1130
311 1130
312 1130
313 1130
314 1130
315 1130
316 1128
317 1128
318 1128
319 1128
320 1128
321 1128
322 1128
323 1128
324 1128
325 1123
326 1123
327 1123
328 1123
329 1123
330 1123
331 1123
332 1123
333 1123
334 1123
335 1123
336 1123
337 1123
338 1123
339 1123
340 1123
341 1123
342 1123
343 1123
344 1123
345 1123
346 1123
347 1123
348 1123
349 1123
350 1123
351 1122
352 1122
353 1122
354 1122
355 1122
356 1122
357 1122
358 1122
359 1122
360 1111
361 1111
362 1111
363 1111
364 1111
365 1111
366 1111
367 1111
368 1111
369 1111
370 1111
371 1111
372 1111
373 1111
374 1111
375 1111
376 1102
377 1102
378 1102
379 1102
380 1102
381 1086
382 1086
383 1086
384 1086
385 1086
386 1086
387 1086
388 1086
389 1086
390 1086
391 1086
392 1086
393 1086
394 1086
395 1086
396 1086
397 1086
398 1086
399 1086
400 1086
401 1072
402 1072
403 1072
404 1072
405 1072
406 1072
407 1072
408 1072
409 1072
410 1072
411 1072
412 1072
413 1072
414 1072
415 1072
416 1072
417 1072
418 1072
419 1072
420 1072
421 1072
422 1072
423 1072
424 1072
425 1072
426 1072
427 1072
428 1072
429 1072
430 1072
431 1072
432 1072
433 1072
434 1072
435 1072
436 1072
437 1072
438 1072
439 1072
440 1072
441 1072
442 1072
443 1072
444 1072
445 1072
446 1072
447 1072
448 1072
449 1072
450 1072
451 1072
452 1072
453 1072
454 1072
455 1072
456 1072
457 1072
458 1072
459 1072
460 1072
461 1072
462 1072
463 1072
464 1072
465 1072
466 1072
467 1059
468 1059
469 1059
470 1059
471 1059
472 1059
473 1059
474 1059
475 1059
476 1059
477 1059
478 1050
479 1050
480 1050
481 1050
482 1050
483 1050
484 1050
485 1050
486 1050
487 1050
488 1050
489 1050
490 1050
491 1050
492 1049
493 1049
494 1049
495 1049
496 1049
497 1049
498 1049
499 1049
500 1049
501 1049
502 1046
503 1046
504 1046
505 1046
506 1046
507 1046
508 1046
509 1046
510 1046
511 1046
512 1046
513 1046
514 1046
515 1046
516 1046
517 1046
518 1046
519 1046
520 1046
521 1046
522 1040
523 1040
524 1040
525 1040
526 1040
527 1040
528 1040
529 1040
530 1040
531 1040
532 1040
533 1040
534 1040
535 1040
536 1037
537 1037
538 1037
539 1037
540 1037
541 1037
542 1037
543 1037
544 1037
545 1037
546 1037
547 1037
548 1037
549 1037
550 1037
551 1037
552 1037
553 1037
554 1037
555 1037
556 1037
557 1037
558 1037
559 1037
560 1037
561 1037
562 1037
563 1037
564 1037
565 1037
566 1037
567 1037
568 1037
569 1037
570 1037
571 1037
572 1037
573 1037
574 1036
575 1036
576 1036
577 1036
578 1036
579 1036
580 1036
581 1034
582 1034
583 1034
584 1034
585 1034
586 1034
587 1034
588 1034
589 1034
590 1034
591 1033
592 1033
593 1033
594 1033
595 1033
596 1033
597 1031
598 1031
599 1031
600 1031
601 1031
602 1031
603 1031
604 1031
605 1031
606 1031
607 1031
608 1031
609 1031
610 1031
611 1031
612 1031
613 1031
614 1031
615 1031
616 1031
617 1031
618 1031
619 1031
620 1031
621 1031
622 1031
623 1031
624 1031
625 1031
626 1031
627 1031
628 1031
629 1031
630 1031
631 1024
632 1024
633 1024
634 1024
635 1024
636 1024
637 1024
638 1024
639 1024
640 1024
641 1024
642 1024
643 1024
644 1024
645 1024
646 1024
647 1024
648 1024
649 1024
650 1024
651 1024
652 1024
653 1024
654 1024
655 1024
656 1024
657 1024
658 1024
659 1024
660 1024
661 1024
662 1024
663 1024
664 1024
665 1024
666 1024
667 1024
668 1024
669 1024
670 1024
671 1024
672 1024
673 1022
674 1022
675 1022
676 1022
677 1022
678 1022
679 1022
680 1022
681 1022
682 1022
683 1022
684 1022
685 1022
686 1022
687 1022
688 1022
689 1022
690 1022
691 1022
692 1022
693 1022
694 1022
695 1022
696 1022
697 1022
698 1022
699 1022
700 1022
701 1022
702 1022
703 1022
704 1022
705 1022
706 1022
707 1022
708 1022
709 1022
710 1022
711 1022
712 1022
713 1022
714 1022
715 1022
716 1022
717 1022
718 1022
719 1022
720 1022
721 1022
722 1022
723 1022
724 1022
725 1022
726 1022
727 1022
728 1022
729 1022
730 1022
731 1022
732 1022
733 1022
734 1022
735 1020
736 1020
737 1020
738 1020
739 1020
740 1020
741 1020
742 1020
743 1020
744 1020
745 1020
746 1020
747 1020
748 1020
749 1020
750 1020
751 1020
752 1020
753 1020
754 1020
755 1020
756 1020
757 1020
758 1020
759 1020
760 1020
761 1020
762 1020
763 1020
764 1020
765 1020
766 1020
767 1020
768 1020
769 1020
770 1020
771 1020
772 1020
773 1020
774 1020
775 1020
776 1020
777 1020
778 1020
779 1020
780 1020
781 1020
782 1020
783 1020
784 1020
785 1020
786 1020
787 1020
788 1020
789 1020
790 1020
791 1020
792 1020
793 1020
794 1020
795 1020
796 1020
797 1020
798 1020
799 1020
800 1020
801 1020
802 1020
803 1020
804 1020
805 1020
806 1020
807 1020
808 1020
809 1020
810 1020
811 1020
812 1020
813 1020
814 1020
815 1020
816 1020
817 1020
818 1020
819 1020
820 1020
821 1020
822 1020
823 1020
824 1020
825 1020
826 1020
827 1020
828 1020
829 1020
830 1020
831 1020
832 1020
833 1020
834 1020
835 1020
836 1020
837 1020
838 1020
839 1020
840 1020
841 1020
842 1020
843 1020
844 1020
845 1020
846 1020
847 1020
848 1020
849 1020
850 1020
851 1020
852 1020
853 1020
854 1020
855 1020
856 1020
857 1020
858 1020
859 1020
860 1020
861 1020
862 1020
863 1020
864 1020
865 1020
866 1020
867 1020
868 1019
869 1019
870 1019
871 1019
872 1019
873 1019
874 1019
875 1019
876 1019
877 1019
878 1019
879 1019
880 1019
881 1019
882 1019
883 1019
884 1019
885 1019
886 1019
887 1019
888 1019
889 1019
890 1019
891 1019
892 1019
893 1019
894 1019
895 1019
896 1019
897 1019
898 1019
899 1019
900 1019
901 1019
902 1019
903 1019
904 1019
905 1019
906 1019
907 1019
908 1019
909 1019
910 1019
911 1019
912 1019
913 1019
914 1019
915 1019
916 1019
917 1019
918 1019
919 1019
920 1019
921 1019
922 1019
923 1019
924 1019
925 1019
926 1019
927 1019
928 1019
929 1019
930 1019
931 1019
932 1019
933 1019
934 1019
935 1019
936 1019
937 1019
938 1019
939 1019
940 1019
941 1019
942 1019
943 1019
944 1019
945 1019
946 1019
947 1019
948 1019
949 1019
950 1019
951 1017
952 1017
953 1017
954 1017
955 1017
956 1017
957 1017
958 1017
959 1017
960 1017
961 1017
962 1017
963 1017
964 1017
965 1017
966 1017
967 1017
968 1017
969 1017
970 1017
971 1017
972 1017
973 1017
974 1017
975 1017
976 1017
977 1017
978 1017
979 1017
980 1017
981 1017
982 1017
983 1017
984 1017
985 1017
986 1017
987 1017
988 1017
989 1017
990 1017
991 1017
992 1017
993 1017
994 1017
995 1017
996 1017
997 1017
998 1017
999 1017
Best: [[19,5,29,24,23,13,12,11,14],
       [17,33,16,31,8],
       [30,15,20,32,35,18],
       [21,34,10,3,22,27],
       [26,36,28,25],
       [7,2,4,6,9,37]], fitness: 1017
